20 10
88 85 87 73 33 71 68 25 98 81
81 88 74 68 38 65 85 27 99 96
77 90 83 66 31 42 43 28 98 80
68 89 85 69 28 85 83 32 98 75
87 89 62 50 47 71 70 15 99 76
73 94 79 61 36 43 72 33 99 76
82 91 88 59 25 29 71 30 99 77
72 95 90 60 55 64 73 31 99 83
92 80 90 50 23 61 64 37 99 62
83 90 80 58 24 55 80 43 99 86
65 85 85 71 31 63 48 56 99 70
69 86 92 56 20 76 68 45 99 66
89 84 75 61 43 60 76 31 99 84
83 91 68 56 30 70 60 31 99 86
82 90 68 56 35 52 55 21 98 84
86 94 77 81 25 43 53 30 96 69
89 90 68 65 27 56 74 24 99 91
75 92 81 57 58 46 61 29 99 62
64 83 82 54 53 55 83 22 99 83
78 76 54 73 25 64 42 46 98 65
